\ This file has been generated by DOcplex
\ ENCODING=ISO-8859-1
\Problem name: LABS of size 18

Minimize
 obj: [ 2 C_1^2 + 2 C_2^2 + 2 C_3^2 + 2 C_4^2 + 2 C_5^2 + 2 C_6^2 + 2 C_7^2
      + 2 C_8^2 + 2 C_9^2 + 2 C_10^2 + 2 C_11^2 + 2 C_12^2 + 2 C_13^2 + 2 C_14^2
      + 2 C_15^2 + 2 C_16^2 + 2 C_17^2 ]/2
Subject To
 c1: - 4 b_1 - 4 b_2 - 4 b_3 - 4 b_4 - 4 b_5 - 4 b_6 - 4 b_7 - 4 b_8 - 4 b_9
     - 4 b_10 - 4 b_11 - 4 b_12 - 4 b_13 - 4 b_14 - 4 b_15 - 4 b_16 - 2 b_17
     - 2 b_18 + 4 b_y_1_2 + 4 b_y_2_3 + 4 b_y_3_4 + 4 b_y_4_5 + 4 b_y_5_6
     + 4 b_y_6_7 + 4 b_y_7_8 + 4 b_y_8_9 + 4 b_y_9_10 + 4 b_y_10_11
     + 4 b_y_11_12 + 4 b_y_12_13 + 4 b_y_13_14 + 4 b_y_14_15 + 4 b_y_15_16
     + 4 b_y_16_17 + 4 b_y_17_18 - C_1 = -17
 c2: - 2 b_1 - 4 b_2 - 4 b_3 - 4 b_4 - 4 b_5 - 4 b_6 - 4 b_7 - 4 b_8 - 4 b_9
     - 4 b_10 - 4 b_11 - 4 b_12 - 4 b_13 - 4 b_14 - 4 b_15 - 2 b_16 - 2 b_17
     - 2 b_18 + 4 b_y_1_3 + 4 b_y_2_4 + 4 b_y_3_5 + 4 b_y_4_6 + 4 b_y_5_7
     + 4 b_y_6_8 + 4 b_y_7_9 + 4 b_y_8_10 + 4 b_y_9_11 + 4 b_y_10_12
     + 4 b_y_11_13 + 4 b_y_12_14 + 4 b_y_13_15 + 4 b_y_14_16 + 4 b_y_15_17
     + 4 b_y_16_18 - C_2 = -16
 c3: - 2 b_1 - 2 b_2 - 4 b_3 - 4 b_4 - 4 b_5 - 4 b_6 - 4 b_7 - 4 b_8 - 4 b_9
     - 4 b_10 - 4 b_11 - 4 b_12 - 4 b_13 - 4 b_14 - 2 b_15 - 2 b_16 - 2 b_17
     - 2 b_18 + 4 b_y_1_4 + 4 b_y_2_5 + 4 b_y_3_6 + 4 b_y_4_7 + 4 b_y_5_8
     + 4 b_y_6_9 + 4 b_y_7_10 + 4 b_y_8_11 + 4 b_y_9_12 + 4 b_y_10_13
     + 4 b_y_11_14 + 4 b_y_12_15 + 4 b_y_13_16 + 4 b_y_14_17 + 4 b_y_15_18 - C_3
      = -15
 c4: - 2 b_1 - 2 b_2 - 2 b_3 - 4 b_4 - 4 b_5 - 4 b_6 - 4 b_7 - 4 b_8 - 4 b_9
     - 4 b_10 - 4 b_11 - 4 b_12 - 4 b_13 - 2 b_14 - 2 b_15 - 2 b_16 - 2 b_17
     - 2 b_18 + 4 b_y_1_5 + 4 b_y_2_6 + 4 b_y_3_7 + 4 b_y_4_8 + 4 b_y_5_9
     + 4 b_y_6_10 + 4 b_y_7_11 + 4 b_y_8_12 + 4 b_y_9_13 + 4 b_y_10_14
     + 4 b_y_11_15 + 4 b_y_12_16 + 4 b_y_13_17 + 4 b_y_14_18 - C_4 = -14
 c5: - 2 b_1 - 2 b_2 - 2 b_3 - 2 b_4 - 4 b_5 - 4 b_6 - 4 b_7 - 4 b_8 - 4 b_9
     - 4 b_10 - 4 b_11 - 4 b_12 - 2 b_13 - 2 b_14 - 2 b_15 - 2 b_16 - 2 b_17
     - 2 b_18 + 4 b_y_1_6 + 4 b_y_2_7 + 4 b_y_3_8 + 4 b_y_4_9 + 4 b_y_5_10
     + 4 b_y_6_11 + 4 b_y_7_12 + 4 b_y_8_13 + 4 b_y_9_14 + 4 b_y_10_15
     + 4 b_y_11_16 + 4 b_y_12_17 + 4 b_y_13_18 - C_5 = -13
 c6: - 2 b_1 - 2 b_2 - 2 b_3 - 2 b_4 - 2 b_5 - 4 b_6 - 4 b_7 - 4 b_8 - 4 b_9
     - 4 b_10 - 4 b_11 - 2 b_12 - 2 b_13 - 2 b_14 - 2 b_15 - 2 b_16 - 2 b_17
     - 2 b_18 + 4 b_y_1_7 + 4 b_y_2_8 + 4 b_y_3_9 + 4 b_y_4_10 + 4 b_y_5_11
     + 4 b_y_6_12 + 4 b_y_7_13 + 4 b_y_8_14 + 4 b_y_9_15 + 4 b_y_10_16
     + 4 b_y_11_17 + 4 b_y_12_18 - C_6 = -12
 c7: - 2 b_1 - 2 b_2 - 2 b_3 - 2 b_4 - 2 b_5 - 2 b_6 - 4 b_7 - 4 b_8 - 4 b_9
     - 4 b_10 - 2 b_11 - 2 b_12 - 2 b_13 - 2 b_14 - 2 b_15 - 2 b_16 - 2 b_17
     - 2 b_18 + 4 b_y_1_8 + 4 b_y_2_9 + 4 b_y_3_10 + 4 b_y_4_11 + 4 b_y_5_12
     + 4 b_y_6_13 + 4 b_y_7_14 + 4 b_y_8_15 + 4 b_y_9_16 + 4 b_y_10_17
     + 4 b_y_11_18 - C_7 = -11
 c8: - 2 b_1 - 2 b_2 - 2 b_3 - 2 b_4 - 2 b_5 - 2 b_6 - 2 b_7 - 4 b_8 - 4 b_9
     - 2 b_10 - 2 b_11 - 2 b_12 - 2 b_13 - 2 b_14 - 2 b_15 - 2 b_16 - 2 b_17
     - 2 b_18 + 4 b_y_1_9 + 4 b_y_2_10 + 4 b_y_3_11 + 4 b_y_4_12 + 4 b_y_5_13
     + 4 b_y_6_14 + 4 b_y_7_15 + 4 b_y_8_16 + 4 b_y_9_17 + 4 b_y_10_18 - C_8 = 
     -10
 c9: - 2 b_1 - 2 b_2 - 2 b_3 - 2 b_4 - 2 b_5 - 2 b_6 - 2 b_7 - 2 b_8 - 2 b_9
     - 2 b_10 - 2 b_11 - 2 b_12 - 2 b_13 - 2 b_14 - 2 b_15 - 2 b_16 - 2 b_17
     - 2 b_18 + 4 b_y_1_10 + 4 b_y_2_11 + 4 b_y_3_12 + 4 b_y_4_13 + 4 b_y_5_14
     + 4 b_y_6_15 + 4 b_y_7_16 + 4 b_y_8_17 + 4 b_y_9_18 - C_9 = -9
 c10: - 2 b_1 - 2 b_2 - 2 b_3 - 2 b_4 - 2 b_5 - 2 b_6 - 2 b_7 - 2 b_10 - 2 b_11
      - 2 b_12 - 2 b_13 - 2 b_14 - 2 b_15 - 2 b_16 - 2 b_17 - 2 b_18
      + 4 b_y_1_11 + 4 b_y_2_12 + 4 b_y_3_13 + 4 b_y_4_14 + 4 b_y_5_15
      + 4 b_y_6_16 + 4 b_y_7_17 + 4 b_y_8_18 - C_10 = -8
 c11: - 2 b_1 - 2 b_2 - 2 b_3 - 2 b_4 - 2 b_5 - 2 b_6 - 2 b_11 - 2 b_12 - 2 b_13
      - 2 b_14 - 2 b_15 - 2 b_16 - 2 b_17 - 2 b_18 + 4 b_y_1_12 + 4 b_y_2_13
      + 4 b_y_3_14 + 4 b_y_4_15 + 4 b_y_5_16 + 4 b_y_6_17 + 4 b_y_7_18 - C_11
       = -7
 c12: - 2 b_1 - 2 b_2 - 2 b_3 - 2 b_4 - 2 b_5 - 2 b_12 - 2 b_13 - 2 b_14
      - 2 b_15 - 2 b_16 - 2 b_17 - 2 b_18 + 4 b_y_1_13 + 4 b_y_2_14 + 4 b_y_3_15
      + 4 b_y_4_16 + 4 b_y_5_17 + 4 b_y_6_18 - C_12 = -6
 c13: - 2 b_1 - 2 b_2 - 2 b_3 - 2 b_4 - 2 b_13 - 2 b_14 - 2 b_15 - 2 b_16
      - 2 b_17 - 2 b_18 + 4 b_y_1_14 + 4 b_y_2_15 + 4 b_y_3_16 + 4 b_y_4_17
      + 4 b_y_5_18 - C_13 = -5
 c14: - 2 b_1 - 2 b_2 - 2 b_3 - 2 b_14 - 2 b_15 - 2 b_16 - 2 b_17 - 2 b_18
      + 4 b_y_1_15 + 4 b_y_2_16 + 4 b_y_3_17 + 4 b_y_4_18 - C_14 = -4
 c15: - 2 b_1 - 2 b_2 - 2 b_15 - 2 b_16 - 2 b_17 - 2 b_18 + 4 b_y_1_16
      + 4 b_y_2_17 + 4 b_y_3_18 - C_15 = -3
 c16: - 2 b_1 - 2 b_16 - 2 b_17 - 2 b_18 + 4 b_y_1_17 + 4 b_y_2_18 - C_16 = -2
 c17: - 2 b_17 - 2 b_18 + 4 b_y_1_18 - C_17 = -1
 c18: b_y_1_2 - 0.500000000000 b_1 - 0.500000000000 b_2 <= 0
 c19: b_y_1_2 - b_1 - b_2 >= -1
 c20: b_y_2_3 - 0.500000000000 b_2 - 0.500000000000 b_3 <= 0
 c21: b_y_2_3 - b_2 - b_3 >= -1
 c22: b_y_3_4 - 0.500000000000 b_3 - 0.500000000000 b_4 <= 0
 c23: b_y_3_4 - b_3 - b_4 >= -1
 c24: b_y_4_5 - 0.500000000000 b_4 - 0.500000000000 b_5 <= 0
 c25: b_y_4_5 - b_4 - b_5 >= -1
 c26: b_y_5_6 - 0.500000000000 b_5 - 0.500000000000 b_6 <= 0
 c27: b_y_5_6 - b_5 - b_6 >= -1
 c28: b_y_6_7 - 0.500000000000 b_6 - 0.500000000000 b_7 <= 0
 c29: b_y_6_7 - b_6 - b_7 >= -1
 c30: b_y_7_8 - 0.500000000000 b_7 - 0.500000000000 b_8 <= 0
 c31: b_y_7_8 - b_7 - b_8 >= -1
 c32: b_y_8_9 - 0.500000000000 b_8 - 0.500000000000 b_9 <= 0
 c33: b_y_8_9 - b_8 - b_9 >= -1
 c34: b_y_9_10 - 0.500000000000 b_9 - 0.500000000000 b_10 <= 0
 c35: b_y_9_10 - b_9 - b_10 >= -1
 c36: b_y_10_11 - 0.500000000000 b_10 - 0.500000000000 b_11 <= 0
 c37: b_y_10_11 - b_10 - b_11 >= -1
 c38: b_y_11_12 - 0.500000000000 b_11 - 0.500000000000 b_12 <= 0
 c39: b_y_11_12 - b_11 - b_12 >= -1
 c40: b_y_12_13 - 0.500000000000 b_12 - 0.500000000000 b_13 <= 0
 c41: b_y_12_13 - b_12 - b_13 >= -1
 c42: b_y_13_14 - 0.500000000000 b_13 - 0.500000000000 b_14 <= 0
 c43: b_y_13_14 - b_13 - b_14 >= -1
 c44: b_y_14_15 - 0.500000000000 b_14 - 0.500000000000 b_15 <= 0
 c45: b_y_14_15 - b_14 - b_15 >= -1
 c46: b_y_15_16 - 0.500000000000 b_15 - 0.500000000000 b_16 <= 0
 c47: b_y_15_16 - b_15 - b_16 >= -1
 c48: b_y_16_17 - 0.500000000000 b_16 - 0.500000000000 b_17 <= 0
 c49: b_y_16_17 - b_16 - b_17 >= -1
 c50: b_y_17_18 - 0.500000000000 b_17 - 0.500000000000 b_18 <= 0
 c51: b_y_17_18 - b_17 - b_18 >= -1
 c52: b_y_1_3 - 0.500000000000 b_1 - 0.500000000000 b_3 <= 0
 c53: b_y_1_3 - b_1 - b_3 >= -1
 c54: b_y_2_4 - 0.500000000000 b_2 - 0.500000000000 b_4 <= 0
 c55: b_y_2_4 - b_2 - b_4 >= -1
 c56: b_y_3_5 - 0.500000000000 b_3 - 0.500000000000 b_5 <= 0
 c57: b_y_3_5 - b_3 - b_5 >= -1
 c58: b_y_4_6 - 0.500000000000 b_4 - 0.500000000000 b_6 <= 0
 c59: b_y_4_6 - b_4 - b_6 >= -1
 c60: b_y_5_7 - 0.500000000000 b_5 - 0.500000000000 b_7 <= 0
 c61: b_y_5_7 - b_5 - b_7 >= -1
 c62: b_y_6_8 - 0.500000000000 b_6 - 0.500000000000 b_8 <= 0
 c63: b_y_6_8 - b_6 - b_8 >= -1
 c64: b_y_7_9 - 0.500000000000 b_7 - 0.500000000000 b_9 <= 0
 c65: b_y_7_9 - b_7 - b_9 >= -1
 c66: b_y_8_10 - 0.500000000000 b_8 - 0.500000000000 b_10 <= 0
 c67: b_y_8_10 - b_8 - b_10 >= -1
 c68: b_y_9_11 - 0.500000000000 b_9 - 0.500000000000 b_11 <= 0
 c69: b_y_9_11 - b_9 - b_11 >= -1
 c70: b_y_10_12 - 0.500000000000 b_10 - 0.500000000000 b_12 <= 0
 c71: b_y_10_12 - b_10 - b_12 >= -1
 c72: b_y_11_13 - 0.500000000000 b_11 - 0.500000000000 b_13 <= 0
 c73: b_y_11_13 - b_11 - b_13 >= -1
 c74: b_y_12_14 - 0.500000000000 b_12 - 0.500000000000 b_14 <= 0
 c75: b_y_12_14 - b_12 - b_14 >= -1
 c76: b_y_13_15 - 0.500000000000 b_13 - 0.500000000000 b_15 <= 0
 c77: b_y_13_15 - b_13 - b_15 >= -1
 c78: b_y_14_16 - 0.500000000000 b_14 - 0.500000000000 b_16 <= 0
 c79: b_y_14_16 - b_14 - b_16 >= -1
 c80: b_y_15_17 - 0.500000000000 b_15 - 0.500000000000 b_17 <= 0
 c81: b_y_15_17 - b_15 - b_17 >= -1
 c82: b_y_16_18 - 0.500000000000 b_16 - 0.500000000000 b_18 <= 0
 c83: b_y_16_18 - b_16 - b_18 >= -1
 c84: b_y_1_4 - 0.500000000000 b_1 - 0.500000000000 b_4 <= 0
 c85: b_y_1_4 - b_1 - b_4 >= -1
 c86: b_y_2_5 - 0.500000000000 b_2 - 0.500000000000 b_5 <= 0
 c87: b_y_2_5 - b_2 - b_5 >= -1
 c88: b_y_3_6 - 0.500000000000 b_3 - 0.500000000000 b_6 <= 0
 c89: b_y_3_6 - b_3 - b_6 >= -1
 c90: b_y_4_7 - 0.500000000000 b_4 - 0.500000000000 b_7 <= 0
 c91: b_y_4_7 - b_4 - b_7 >= -1
 c92: b_y_5_8 - 0.500000000000 b_5 - 0.500000000000 b_8 <= 0
 c93: b_y_5_8 - b_5 - b_8 >= -1
 c94: b_y_6_9 - 0.500000000000 b_6 - 0.500000000000 b_9 <= 0
 c95: b_y_6_9 - b_6 - b_9 >= -1
 c96: b_y_7_10 - 0.500000000000 b_7 - 0.500000000000 b_10 <= 0
 c97: b_y_7_10 - b_7 - b_10 >= -1
 c98: b_y_8_11 - 0.500000000000 b_8 - 0.500000000000 b_11 <= 0
 c99: b_y_8_11 - b_8 - b_11 >= -1
 c100: b_y_9_12 - 0.500000000000 b_9 - 0.500000000000 b_12 <= 0
 c101: b_y_9_12 - b_9 - b_12 >= -1
 c102: b_y_10_13 - 0.500000000000 b_10 - 0.500000000000 b_13 <= 0
 c103: b_y_10_13 - b_10 - b_13 >= -1
 c104: b_y_11_14 - 0.500000000000 b_11 - 0.500000000000 b_14 <= 0
 c105: b_y_11_14 - b_11 - b_14 >= -1
 c106: b_y_12_15 - 0.500000000000 b_12 - 0.500000000000 b_15 <= 0
 c107: b_y_12_15 - b_12 - b_15 >= -1
 c108: b_y_13_16 - 0.500000000000 b_13 - 0.500000000000 b_16 <= 0
 c109: b_y_13_16 - b_13 - b_16 >= -1
 c110: b_y_14_17 - 0.500000000000 b_14 - 0.500000000000 b_17 <= 0
 c111: b_y_14_17 - b_14 - b_17 >= -1
 c112: b_y_15_18 - 0.500000000000 b_15 - 0.500000000000 b_18 <= 0
 c113: b_y_15_18 - b_15 - b_18 >= -1
 c114: b_y_1_5 - 0.500000000000 b_1 - 0.500000000000 b_5 <= 0
 c115: b_y_1_5 - b_1 - b_5 >= -1
 c116: b_y_2_6 - 0.500000000000 b_2 - 0.500000000000 b_6 <= 0
 c117: b_y_2_6 - b_2 - b_6 >= -1
 c118: b_y_3_7 - 0.500000000000 b_3 - 0.500000000000 b_7 <= 0
 c119: b_y_3_7 - b_3 - b_7 >= -1
 c120: b_y_4_8 - 0.500000000000 b_4 - 0.500000000000 b_8 <= 0
 c121: b_y_4_8 - b_4 - b_8 >= -1
 c122: b_y_5_9 - 0.500000000000 b_5 - 0.500000000000 b_9 <= 0
 c123: b_y_5_9 - b_5 - b_9 >= -1
 c124: b_y_6_10 - 0.500000000000 b_6 - 0.500000000000 b_10 <= 0
 c125: b_y_6_10 - b_6 - b_10 >= -1
 c126: b_y_7_11 - 0.500000000000 b_7 - 0.500000000000 b_11 <= 0
 c127: b_y_7_11 - b_7 - b_11 >= -1
 c128: b_y_8_12 - 0.500000000000 b_8 - 0.500000000000 b_12 <= 0
 c129: b_y_8_12 - b_8 - b_12 >= -1
 c130: b_y_9_13 - 0.500000000000 b_9 - 0.500000000000 b_13 <= 0
 c131: b_y_9_13 - b_9 - b_13 >= -1
 c132: b_y_10_14 - 0.500000000000 b_10 - 0.500000000000 b_14 <= 0
 c133: b_y_10_14 - b_10 - b_14 >= -1
 c134: b_y_11_15 - 0.500000000000 b_11 - 0.500000000000 b_15 <= 0
 c135: b_y_11_15 - b_11 - b_15 >= -1
 c136: b_y_12_16 - 0.500000000000 b_12 - 0.500000000000 b_16 <= 0
 c137: b_y_12_16 - b_12 - b_16 >= -1
 c138: b_y_13_17 - 0.500000000000 b_13 - 0.500000000000 b_17 <= 0
 c139: b_y_13_17 - b_13 - b_17 >= -1
 c140: b_y_14_18 - 0.500000000000 b_14 - 0.500000000000 b_18 <= 0
 c141: b_y_14_18 - b_14 - b_18 >= -1
 c142: b_y_1_6 - 0.500000000000 b_1 - 0.500000000000 b_6 <= 0
 c143: b_y_1_6 - b_1 - b_6 >= -1
 c144: b_y_2_7 - 0.500000000000 b_2 - 0.500000000000 b_7 <= 0
 c145: b_y_2_7 - b_2 - b_7 >= -1
 c146: b_y_3_8 - 0.500000000000 b_3 - 0.500000000000 b_8 <= 0
 c147: b_y_3_8 - b_3 - b_8 >= -1
 c148: b_y_4_9 - 0.500000000000 b_4 - 0.500000000000 b_9 <= 0
 c149: b_y_4_9 - b_4 - b_9 >= -1
 c150: b_y_5_10 - 0.500000000000 b_5 - 0.500000000000 b_10 <= 0
 c151: b_y_5_10 - b_5 - b_10 >= -1
 c152: b_y_6_11 - 0.500000000000 b_6 - 0.500000000000 b_11 <= 0
 c153: b_y_6_11 - b_6 - b_11 >= -1
 c154: b_y_7_12 - 0.500000000000 b_7 - 0.500000000000 b_12 <= 0
 c155: b_y_7_12 - b_7 - b_12 >= -1
 c156: b_y_8_13 - 0.500000000000 b_8 - 0.500000000000 b_13 <= 0
 c157: b_y_8_13 - b_8 - b_13 >= -1
 c158: b_y_9_14 - 0.500000000000 b_9 - 0.500000000000 b_14 <= 0
 c159: b_y_9_14 - b_9 - b_14 >= -1
 c160: b_y_10_15 - 0.500000000000 b_10 - 0.500000000000 b_15 <= 0
 c161: b_y_10_15 - b_10 - b_15 >= -1
 c162: b_y_11_16 - 0.500000000000 b_11 - 0.500000000000 b_16 <= 0
 c163: b_y_11_16 - b_11 - b_16 >= -1
 c164: b_y_12_17 - 0.500000000000 b_12 - 0.500000000000 b_17 <= 0
 c165: b_y_12_17 - b_12 - b_17 >= -1
 c166: b_y_13_18 - 0.500000000000 b_13 - 0.500000000000 b_18 <= 0
 c167: b_y_13_18 - b_13 - b_18 >= -1
 c168: b_y_1_7 - 0.500000000000 b_1 - 0.500000000000 b_7 <= 0
 c169: b_y_1_7 - b_1 - b_7 >= -1
 c170: b_y_2_8 - 0.500000000000 b_2 - 0.500000000000 b_8 <= 0
 c171: b_y_2_8 - b_2 - b_8 >= -1
 c172: b_y_3_9 - 0.500000000000 b_3 - 0.500000000000 b_9 <= 0
 c173: b_y_3_9 - b_3 - b_9 >= -1
 c174: b_y_4_10 - 0.500000000000 b_4 - 0.500000000000 b_10 <= 0
 c175: b_y_4_10 - b_4 - b_10 >= -1
 c176: b_y_5_11 - 0.500000000000 b_5 - 0.500000000000 b_11 <= 0
 c177: b_y_5_11 - b_5 - b_11 >= -1
 c178: b_y_6_12 - 0.500000000000 b_6 - 0.500000000000 b_12 <= 0
 c179: b_y_6_12 - b_6 - b_12 >= -1
 c180: b_y_7_13 - 0.500000000000 b_7 - 0.500000000000 b_13 <= 0
 c181: b_y_7_13 - b_7 - b_13 >= -1
 c182: b_y_8_14 - 0.500000000000 b_8 - 0.500000000000 b_14 <= 0
 c183: b_y_8_14 - b_8 - b_14 >= -1
 c184: b_y_9_15 - 0.500000000000 b_9 - 0.500000000000 b_15 <= 0
 c185: b_y_9_15 - b_9 - b_15 >= -1
 c186: b_y_10_16 - 0.500000000000 b_10 - 0.500000000000 b_16 <= 0
 c187: b_y_10_16 - b_10 - b_16 >= -1
 c188: b_y_11_17 - 0.500000000000 b_11 - 0.500000000000 b_17 <= 0
 c189: b_y_11_17 - b_11 - b_17 >= -1
 c190: b_y_12_18 - 0.500000000000 b_12 - 0.500000000000 b_18 <= 0
 c191: b_y_12_18 - b_12 - b_18 >= -1
 c192: b_y_1_8 - 0.500000000000 b_1 - 0.500000000000 b_8 <= 0
 c193: b_y_1_8 - b_1 - b_8 >= -1
 c194: b_y_2_9 - 0.500000000000 b_2 - 0.500000000000 b_9 <= 0
 c195: b_y_2_9 - b_2 - b_9 >= -1
 c196: b_y_3_10 - 0.500000000000 b_3 - 0.500000000000 b_10 <= 0
 c197: b_y_3_10 - b_3 - b_10 >= -1
 c198: b_y_4_11 - 0.500000000000 b_4 - 0.500000000000 b_11 <= 0
 c199: b_y_4_11 - b_4 - b_11 >= -1
 c200: b_y_5_12 - 0.500000000000 b_5 - 0.500000000000 b_12 <= 0
 c201: b_y_5_12 - b_5 - b_12 >= -1
 c202: b_y_6_13 - 0.500000000000 b_6 - 0.500000000000 b_13 <= 0
 c203: b_y_6_13 - b_6 - b_13 >= -1
 c204: b_y_7_14 - 0.500000000000 b_7 - 0.500000000000 b_14 <= 0
 c205: b_y_7_14 - b_7 - b_14 >= -1
 c206: b_y_8_15 - 0.500000000000 b_8 - 0.500000000000 b_15 <= 0
 c207: b_y_8_15 - b_8 - b_15 >= -1
 c208: b_y_9_16 - 0.500000000000 b_9 - 0.500000000000 b_16 <= 0
 c209: b_y_9_16 - b_9 - b_16 >= -1
 c210: b_y_10_17 - 0.500000000000 b_10 - 0.500000000000 b_17 <= 0
 c211: b_y_10_17 - b_10 - b_17 >= -1
 c212: b_y_11_18 - 0.500000000000 b_11 - 0.500000000000 b_18 <= 0
 c213: b_y_11_18 - b_11 - b_18 >= -1
 c214: b_y_1_9 - 0.500000000000 b_1 - 0.500000000000 b_9 <= 0
 c215: b_y_1_9 - b_1 - b_9 >= -1
 c216: b_y_2_10 - 0.500000000000 b_2 - 0.500000000000 b_10 <= 0
 c217: b_y_2_10 - b_2 - b_10 >= -1
 c218: b_y_3_11 - 0.500000000000 b_3 - 0.500000000000 b_11 <= 0
 c219: b_y_3_11 - b_3 - b_11 >= -1
 c220: b_y_4_12 - 0.500000000000 b_4 - 0.500000000000 b_12 <= 0
 c221: b_y_4_12 - b_4 - b_12 >= -1
 c222: b_y_5_13 - 0.500000000000 b_5 - 0.500000000000 b_13 <= 0
 c223: b_y_5_13 - b_5 - b_13 >= -1
 c224: b_y_6_14 - 0.500000000000 b_6 - 0.500000000000 b_14 <= 0
 c225: b_y_6_14 - b_6 - b_14 >= -1
 c226: b_y_7_15 - 0.500000000000 b_7 - 0.500000000000 b_15 <= 0
 c227: b_y_7_15 - b_7 - b_15 >= -1
 c228: b_y_8_16 - 0.500000000000 b_8 - 0.500000000000 b_16 <= 0
 c229: b_y_8_16 - b_8 - b_16 >= -1
 c230: b_y_9_17 - 0.500000000000 b_9 - 0.500000000000 b_17 <= 0
 c231: b_y_9_17 - b_9 - b_17 >= -1
 c232: b_y_10_18 - 0.500000000000 b_10 - 0.500000000000 b_18 <= 0
 c233: b_y_10_18 - b_10 - b_18 >= -1
 c234: b_y_1_10 - 0.500000000000 b_1 - 0.500000000000 b_10 <= 0
 c235: b_y_1_10 - b_1 - b_10 >= -1
 c236: b_y_2_11 - 0.500000000000 b_2 - 0.500000000000 b_11 <= 0
 c237: b_y_2_11 - b_2 - b_11 >= -1
 c238: b_y_3_12 - 0.500000000000 b_3 - 0.500000000000 b_12 <= 0
 c239: b_y_3_12 - b_3 - b_12 >= -1
 c240: b_y_4_13 - 0.500000000000 b_4 - 0.500000000000 b_13 <= 0
 c241: b_y_4_13 - b_4 - b_13 >= -1
 c242: b_y_5_14 - 0.500000000000 b_5 - 0.500000000000 b_14 <= 0
 c243: b_y_5_14 - b_5 - b_14 >= -1
 c244: b_y_6_15 - 0.500000000000 b_6 - 0.500000000000 b_15 <= 0
 c245: b_y_6_15 - b_6 - b_15 >= -1
 c246: b_y_7_16 - 0.500000000000 b_7 - 0.500000000000 b_16 <= 0
 c247: b_y_7_16 - b_7 - b_16 >= -1
 c248: b_y_8_17 - 0.500000000000 b_8 - 0.500000000000 b_17 <= 0
 c249: b_y_8_17 - b_8 - b_17 >= -1
 c250: b_y_9_18 - 0.500000000000 b_9 - 0.500000000000 b_18 <= 0
 c251: b_y_9_18 - b_9 - b_18 >= -1
 c252: b_y_1_11 - 0.500000000000 b_1 - 0.500000000000 b_11 <= 0
 c253: b_y_1_11 - b_1 - b_11 >= -1
 c254: b_y_2_12 - 0.500000000000 b_2 - 0.500000000000 b_12 <= 0
 c255: b_y_2_12 - b_2 - b_12 >= -1
 c256: b_y_3_13 - 0.500000000000 b_3 - 0.500000000000 b_13 <= 0
 c257: b_y_3_13 - b_3 - b_13 >= -1
 c258: b_y_4_14 - 0.500000000000 b_4 - 0.500000000000 b_14 <= 0
 c259: b_y_4_14 - b_4 - b_14 >= -1
 c260: b_y_5_15 - 0.500000000000 b_5 - 0.500000000000 b_15 <= 0
 c261: b_y_5_15 - b_5 - b_15 >= -1
 c262: b_y_6_16 - 0.500000000000 b_6 - 0.500000000000 b_16 <= 0
 c263: b_y_6_16 - b_6 - b_16 >= -1
 c264: b_y_7_17 - 0.500000000000 b_7 - 0.500000000000 b_17 <= 0
 c265: b_y_7_17 - b_7 - b_17 >= -1
 c266: b_y_8_18 - 0.500000000000 b_8 - 0.500000000000 b_18 <= 0
 c267: b_y_8_18 - b_8 - b_18 >= -1
 c268: b_y_1_12 - 0.500000000000 b_1 - 0.500000000000 b_12 <= 0
 c269: b_y_1_12 - b_1 - b_12 >= -1
 c270: b_y_2_13 - 0.500000000000 b_2 - 0.500000000000 b_13 <= 0
 c271: b_y_2_13 - b_2 - b_13 >= -1
 c272: b_y_3_14 - 0.500000000000 b_3 - 0.500000000000 b_14 <= 0
 c273: b_y_3_14 - b_3 - b_14 >= -1
 c274: b_y_4_15 - 0.500000000000 b_4 - 0.500000000000 b_15 <= 0
 c275: b_y_4_15 - b_4 - b_15 >= -1
 c276: b_y_5_16 - 0.500000000000 b_5 - 0.500000000000 b_16 <= 0
 c277: b_y_5_16 - b_5 - b_16 >= -1
 c278: b_y_6_17 - 0.500000000000 b_6 - 0.500000000000 b_17 <= 0
 c279: b_y_6_17 - b_6 - b_17 >= -1
 c280: b_y_7_18 - 0.500000000000 b_7 - 0.500000000000 b_18 <= 0
 c281: b_y_7_18 - b_7 - b_18 >= -1
 c282: b_y_1_13 - 0.500000000000 b_1 - 0.500000000000 b_13 <= 0
 c283: b_y_1_13 - b_1 - b_13 >= -1
 c284: b_y_2_14 - 0.500000000000 b_2 - 0.500000000000 b_14 <= 0
 c285: b_y_2_14 - b_2 - b_14 >= -1
 c286: b_y_3_15 - 0.500000000000 b_3 - 0.500000000000 b_15 <= 0
 c287: b_y_3_15 - b_3 - b_15 >= -1
 c288: b_y_4_16 - 0.500000000000 b_4 - 0.500000000000 b_16 <= 0
 c289: b_y_4_16 - b_4 - b_16 >= -1
 c290: b_y_5_17 - 0.500000000000 b_5 - 0.500000000000 b_17 <= 0
 c291: b_y_5_17 - b_5 - b_17 >= -1
 c292: b_y_6_18 - 0.500000000000 b_6 - 0.500000000000 b_18 <= 0
 c293: b_y_6_18 - b_6 - b_18 >= -1
 c294: b_y_1_14 - 0.500000000000 b_1 - 0.500000000000 b_14 <= 0
 c295: b_y_1_14 - b_1 - b_14 >= -1
 c296: b_y_2_15 - 0.500000000000 b_2 - 0.500000000000 b_15 <= 0
 c297: b_y_2_15 - b_2 - b_15 >= -1
 c298: b_y_3_16 - 0.500000000000 b_3 - 0.500000000000 b_16 <= 0
 c299: b_y_3_16 - b_3 - b_16 >= -1
 c300: b_y_4_17 - 0.500000000000 b_4 - 0.500000000000 b_17 <= 0
 c301: b_y_4_17 - b_4 - b_17 >= -1
 c302: b_y_5_18 - 0.500000000000 b_5 - 0.500000000000 b_18 <= 0
 c303: b_y_5_18 - b_5 - b_18 >= -1
 c304: b_y_1_15 - 0.500000000000 b_1 - 0.500000000000 b_15 <= 0
 c305: b_y_1_15 - b_1 - b_15 >= -1
 c306: b_y_2_16 - 0.500000000000 b_2 - 0.500000000000 b_16 <= 0
 c307: b_y_2_16 - b_2 - b_16 >= -1
 c308: b_y_3_17 - 0.500000000000 b_3 - 0.500000000000 b_17 <= 0
 c309: b_y_3_17 - b_3 - b_17 >= -1
 c310: b_y_4_18 - 0.500000000000 b_4 - 0.500000000000 b_18 <= 0
 c311: b_y_4_18 - b_4 - b_18 >= -1
 c312: b_y_1_16 - 0.500000000000 b_1 - 0.500000000000 b_16 <= 0
 c313: b_y_1_16 - b_1 - b_16 >= -1
 c314: b_y_2_17 - 0.500000000000 b_2 - 0.500000000000 b_17 <= 0
 c315: b_y_2_17 - b_2 - b_17 >= -1
 c316: b_y_3_18 - 0.500000000000 b_3 - 0.500000000000 b_18 <= 0
 c317: b_y_3_18 - b_3 - b_18 >= -1
 c318: b_y_1_17 - 0.500000000000 b_1 - 0.500000000000 b_17 <= 0
 c319: b_y_1_17 - b_1 - b_17 >= -1
 c320: b_y_2_18 - 0.500000000000 b_2 - 0.500000000000 b_18 <= 0
 c321: b_y_2_18 - b_2 - b_18 >= -1
 c322: b_y_1_18 - 0.500000000000 b_1 - 0.500000000000 b_18 <= 0
 c323: b_y_1_18 - b_1 - b_18 >= -1

Bounds
 0 <= b_1 <= 1
 0 <= b_2 <= 1
 0 <= b_3 <= 1
 0 <= b_4 <= 1
 0 <= b_5 <= 1
 0 <= b_6 <= 1
 0 <= b_7 <= 1
 0 <= b_8 <= 1
 0 <= b_9 <= 1
 0 <= b_10 <= 1
 0 <= b_11 <= 1
 0 <= b_12 <= 1
 0 <= b_13 <= 1
 0 <= b_14 <= 1
 0 <= b_15 <= 1
 0 <= b_16 <= 1
 0 <= b_17 <= 1
 0 <= b_18 <= 1
 0 <= b_y_1_2 <= 1
 0 <= b_y_2_3 <= 1
 0 <= b_y_3_4 <= 1
 0 <= b_y_4_5 <= 1
 0 <= b_y_5_6 <= 1
 0 <= b_y_6_7 <= 1
 0 <= b_y_7_8 <= 1
 0 <= b_y_8_9 <= 1
 0 <= b_y_9_10 <= 1
 0 <= b_y_10_11 <= 1
 0 <= b_y_11_12 <= 1
 0 <= b_y_12_13 <= 1
 0 <= b_y_13_14 <= 1
 0 <= b_y_14_15 <= 1
 0 <= b_y_15_16 <= 1
 0 <= b_y_16_17 <= 1
 0 <= b_y_17_18 <= 1
 0 <= b_y_1_3 <= 1
 0 <= b_y_2_4 <= 1
 0 <= b_y_3_5 <= 1
 0 <= b_y_4_6 <= 1
 0 <= b_y_5_7 <= 1
 0 <= b_y_6_8 <= 1
 0 <= b_y_7_9 <= 1
 0 <= b_y_8_10 <= 1
 0 <= b_y_9_11 <= 1
 0 <= b_y_10_12 <= 1
 0 <= b_y_11_13 <= 1
 0 <= b_y_12_14 <= 1
 0 <= b_y_13_15 <= 1
 0 <= b_y_14_16 <= 1
 0 <= b_y_15_17 <= 1
 0 <= b_y_16_18 <= 1
 0 <= b_y_1_4 <= 1
 0 <= b_y_2_5 <= 1
 0 <= b_y_3_6 <= 1
 0 <= b_y_4_7 <= 1
 0 <= b_y_5_8 <= 1
 0 <= b_y_6_9 <= 1
 0 <= b_y_7_10 <= 1
 0 <= b_y_8_11 <= 1
 0 <= b_y_9_12 <= 1
 0 <= b_y_10_13 <= 1
 0 <= b_y_11_14 <= 1
 0 <= b_y_12_15 <= 1
 0 <= b_y_13_16 <= 1
 0 <= b_y_14_17 <= 1
 0 <= b_y_15_18 <= 1
 0 <= b_y_1_5 <= 1
 0 <= b_y_2_6 <= 1
 0 <= b_y_3_7 <= 1
 0 <= b_y_4_8 <= 1
 0 <= b_y_5_9 <= 1
 0 <= b_y_6_10 <= 1
 0 <= b_y_7_11 <= 1
 0 <= b_y_8_12 <= 1
 0 <= b_y_9_13 <= 1
 0 <= b_y_10_14 <= 1
 0 <= b_y_11_15 <= 1
 0 <= b_y_12_16 <= 1
 0 <= b_y_13_17 <= 1
 0 <= b_y_14_18 <= 1
 0 <= b_y_1_6 <= 1
 0 <= b_y_2_7 <= 1
 0 <= b_y_3_8 <= 1
 0 <= b_y_4_9 <= 1
 0 <= b_y_5_10 <= 1
 0 <= b_y_6_11 <= 1
 0 <= b_y_7_12 <= 1
 0 <= b_y_8_13 <= 1
 0 <= b_y_9_14 <= 1
 0 <= b_y_10_15 <= 1
 0 <= b_y_11_16 <= 1
 0 <= b_y_12_17 <= 1
 0 <= b_y_13_18 <= 1
 0 <= b_y_1_7 <= 1
 0 <= b_y_2_8 <= 1
 0 <= b_y_3_9 <= 1
 0 <= b_y_4_10 <= 1
 0 <= b_y_5_11 <= 1
 0 <= b_y_6_12 <= 1
 0 <= b_y_7_13 <= 1
 0 <= b_y_8_14 <= 1
 0 <= b_y_9_15 <= 1
 0 <= b_y_10_16 <= 1
 0 <= b_y_11_17 <= 1
 0 <= b_y_12_18 <= 1
 0 <= b_y_1_8 <= 1
 0 <= b_y_2_9 <= 1
 0 <= b_y_3_10 <= 1
 0 <= b_y_4_11 <= 1
 0 <= b_y_5_12 <= 1
 0 <= b_y_6_13 <= 1
 0 <= b_y_7_14 <= 1
 0 <= b_y_8_15 <= 1
 0 <= b_y_9_16 <= 1
 0 <= b_y_10_17 <= 1
 0 <= b_y_11_18 <= 1
 0 <= b_y_1_9 <= 1
 0 <= b_y_2_10 <= 1
 0 <= b_y_3_11 <= 1
 0 <= b_y_4_12 <= 1
 0 <= b_y_5_13 <= 1
 0 <= b_y_6_14 <= 1
 0 <= b_y_7_15 <= 1
 0 <= b_y_8_16 <= 1
 0 <= b_y_9_17 <= 1
 0 <= b_y_10_18 <= 1
 0 <= b_y_1_10 <= 1
 0 <= b_y_2_11 <= 1
 0 <= b_y_3_12 <= 1
 0 <= b_y_4_13 <= 1
 0 <= b_y_5_14 <= 1
 0 <= b_y_6_15 <= 1
 0 <= b_y_7_16 <= 1
 0 <= b_y_8_17 <= 1
 0 <= b_y_9_18 <= 1
 0 <= b_y_1_11 <= 1
 0 <= b_y_2_12 <= 1
 0 <= b_y_3_13 <= 1
 0 <= b_y_4_14 <= 1
 0 <= b_y_5_15 <= 1
 0 <= b_y_6_16 <= 1
 0 <= b_y_7_17 <= 1
 0 <= b_y_8_18 <= 1
 0 <= b_y_1_12 <= 1
 0 <= b_y_2_13 <= 1
 0 <= b_y_3_14 <= 1
 0 <= b_y_4_15 <= 1
 0 <= b_y_5_16 <= 1
 0 <= b_y_6_17 <= 1
 0 <= b_y_7_18 <= 1
 0 <= b_y_1_13 <= 1
 0 <= b_y_2_14 <= 1
 0 <= b_y_3_15 <= 1
 0 <= b_y_4_16 <= 1
 0 <= b_y_5_17 <= 1
 0 <= b_y_6_18 <= 1
 0 <= b_y_1_14 <= 1
 0 <= b_y_2_15 <= 1
 0 <= b_y_3_16 <= 1
 0 <= b_y_4_17 <= 1
 0 <= b_y_5_18 <= 1
 0 <= b_y_1_15 <= 1
 0 <= b_y_2_16 <= 1
 0 <= b_y_3_17 <= 1
 0 <= b_y_4_18 <= 1
 0 <= b_y_1_16 <= 1
 0 <= b_y_2_17 <= 1
 0 <= b_y_3_18 <= 1
 0 <= b_y_1_17 <= 1
 0 <= b_y_2_18 <= 1
 0 <= b_y_1_18 <= 1
 -17 <= C_1 <= 17
 -16 <= C_2 <= 16
 -15 <= C_3 <= 15
 -14 <= C_4 <= 14
 -13 <= C_5 <= 13
 -12 <= C_6 <= 12
 -11 <= C_7 <= 11
 -10 <= C_8 <= 10
 -9 <= C_9 <= 9
 -8 <= C_10 <= 8
 -7 <= C_11 <= 7
 -6 <= C_12 <= 6
 -5 <= C_13 <= 5
 -4 <= C_14 <= 4
 -3 <= C_15 <= 3
 -2 <= C_16 <= 2
 -1 <= C_17 <= 1

Binaries
 b_1 b_2 b_3 b_4 b_5 b_6 b_7 b_8 b_9 b_10 b_11 b_12 b_13 b_14 b_15 b_16 b_17
 b_18 b_y_1_2 b_y_2_3 b_y_3_4 b_y_4_5 b_y_5_6 b_y_6_7 b_y_7_8 b_y_8_9 b_y_9_10
 b_y_10_11 b_y_11_12 b_y_12_13 b_y_13_14 b_y_14_15 b_y_15_16 b_y_16_17 b_y_17_18
 b_y_1_3 b_y_2_4 b_y_3_5 b_y_4_6 b_y_5_7 b_y_6_8 b_y_7_9 b_y_8_10 b_y_9_11
 b_y_10_12 b_y_11_13 b_y_12_14 b_y_13_15 b_y_14_16 b_y_15_17 b_y_16_18 b_y_1_4
 b_y_2_5 b_y_3_6 b_y_4_7 b_y_5_8 b_y_6_9 b_y_7_10 b_y_8_11 b_y_9_12 b_y_10_13
 b_y_11_14 b_y_12_15 b_y_13_16 b_y_14_17 b_y_15_18 b_y_1_5 b_y_2_6 b_y_3_7
 b_y_4_8 b_y_5_9 b_y_6_10 b_y_7_11 b_y_8_12 b_y_9_13 b_y_10_14 b_y_11_15
 b_y_12_16 b_y_13_17 b_y_14_18 b_y_1_6 b_y_2_7 b_y_3_8 b_y_4_9 b_y_5_10 b_y_6_11
 b_y_7_12 b_y_8_13 b_y_9_14 b_y_10_15 b_y_11_16 b_y_12_17 b_y_13_18 b_y_1_7
 b_y_2_8 b_y_3_9 b_y_4_10 b_y_5_11 b_y_6_12 b_y_7_13 b_y_8_14 b_y_9_15 b_y_10_16
 b_y_11_17 b_y_12_18 b_y_1_8 b_y_2_9 b_y_3_10 b_y_4_11 b_y_5_12 b_y_6_13
 b_y_7_14 b_y_8_15 b_y_9_16 b_y_10_17 b_y_11_18 b_y_1_9 b_y_2_10 b_y_3_11
 b_y_4_12 b_y_5_13 b_y_6_14 b_y_7_15 b_y_8_16 b_y_9_17 b_y_10_18 b_y_1_10
 b_y_2_11 b_y_3_12 b_y_4_13 b_y_5_14 b_y_6_15 b_y_7_16 b_y_8_17 b_y_9_18
 b_y_1_11 b_y_2_12 b_y_3_13 b_y_4_14 b_y_5_15 b_y_6_16 b_y_7_17 b_y_8_18
 b_y_1_12 b_y_2_13 b_y_3_14 b_y_4_15 b_y_5_16 b_y_6_17 b_y_7_18 b_y_1_13
 b_y_2_14 b_y_3_15 b_y_4_16 b_y_5_17 b_y_6_18 b_y_1_14 b_y_2_15 b_y_3_16
 b_y_4_17 b_y_5_18 b_y_1_15 b_y_2_16 b_y_3_17 b_y_4_18 b_y_1_16 b_y_2_17
 b_y_3_18 b_y_1_17 b_y_2_18 b_y_1_18

Generals
 C_1 C_2 C_3 C_4 C_5 C_6 C_7 C_8 C_9 C_10 C_11 C_12 C_13 C_14 C_15 C_16 C_17
End
